
  32    4
  10   10   10   10

   0   0   0   0   0   4 2 5 7 13 
   1   1   1   1   0   2 16 3 
   4   5   5   0   1   4 12 11 8 4 
   4   5   0   3   3   4 21 20 19 6 
   6   2   0   5   6   8 31 30 29 24 18 16 15 10 
   8   6   3   0   4   4 29 15 10 9 
   7   4   0   8   4   4 29 24 16 11 
   4   4   4   0   8   3 29 15 14 
   7   0   1   2   5   5 30 28 24 22 18 
   2   3   6   0   4   2 23 14 
   6   0   5   4   6   2 17 15 
   4   3   3   0   4   1 14 
   5   4   0   1   2   1 14 
  10   2   5   0   3   3 28 26 17 
  10   4   0   4   3   4 28 26 23 22 
   9   5   0   6   2   2 26 17 
   5   4   0   1   2   2 27 22 
  10   0   3   3   5   2 27 25 
   3   2   7   5   0   2 26 25 
   8   4   0   5   4   1 23 
   8   7   3   0   3   1 22 
   1   0   4   4   5   1 25 
  10   4   4   0   5   1 25 
   6   5   4   0   3   1 26 
   4   0   3   6   3   1 32
  10   5   0   4   5   1 32
   9   4   4   0   3   1 32
   6   0   3   7   5   1 32
   4   4   4   0   4   1 32
   5   4   8   0   6   1 32
   8   5   0   3   4   1 32
   0   0   0   0   0   0 
